#program base.

vertex(1). vertex(2). vertex(3). vertex(4). vertex(5). vertex(6). vertex(7). vertex(8). vertex(9). vertex(10). vertex(12). vertex(13). vertex(14). vertex(15). vertex(16). vertex(17). vertex(19). vertex(20). vertex(22). vertex(23). vertex(24). vertex(26). vertex(29). vertex(30). vertex(31). vertex(32). vertex(33). vertex(34). vertex(35). vertex(36). vertex(37). vertex(38). vertex(39). vertex(41). vertex(42). vertex(43). vertex(44). vertex(45). vertex(46). vertex(47). vertex(48). vertex(49). vertex(50). vertex(51). vertex(52). vertex(53). vertex(54). vertex(56). vertex(57). vertex(58). vertex(59). vertex(60). vertex(61). vertex(62). vertex(63). vertex(64). vertex(65). vertex(67). vertex(69). vertex(70). vertex(71). vertex(72). vertex(73). vertex(74). vertex(75). vertex(76). vertex(77). vertex(78). vertex(80). vertex(81). vertex(84). vertex(85). vertex(86). vertex(87). vertex(88). vertex(89). vertex(90). vertex(91). vertex(92). vertex(93). vertex(94). vertex(97). vertex(99). vertex(100). vertex(101). vertex(102). vertex(103). vertex(104). vertex(105). vertex(106). vertex(108). vertex(109). vertex(111). vertex(113). vertex(114). vertex(117). vertex(118). vertex(119). vertex(120). vertex(121). vertex(122). vertex(123). vertex(124). vertex(125). vertex(126). vertex(128). vertex(129). vertex(132). vertex(133). vertex(134). vertex(135). vertex(136). vertex(137). vertex(138). vertex(139). vertex(141). vertex(143). vertex(144). vertex(145). vertex(147). vertex(148). vertex(149). vertex(150). vertex(151). vertex(152). vertex(153). vertex(154). vertex(155). vertex(156). vertex(157). vertex(158). vertex(159). vertex(160). vertex(161). vertex(162). vertex(163). vertex(164). vertex(165). vertex(166). vertex(168). vertex(169). vertex(170). vertex(171). vertex(172). vertex(173). vertex(174). vertex(175). vertex(176). vertex(178). vertex(179). vertex(180). vertex(181). vertex(182). vertex(184). vertex(186). vertex(187). vertex(188). vertex(189). vertex(190). vertex(191). vertex(192). vertex(193). vertex(194). vertex(195). vertex(196). vertex(197). vertex(199). vertex(202). vertex(204). vertex(205). vertex(206). vertex(207). vertex(208). vertex(209). vertex(210). vertex(211). vertex(212). vertex(214). vertex(216). vertex(217). vertex(218). vertex(219). vertex(220). vertex(221). vertex(222). vertex(223). vertex(224). vertex(225). vertex(226). vertex(227). vertex(228). vertex(229). vertex(230). vertex(231). vertex(232). vertex(234). vertex(235). vertex(236). vertex(237). vertex(238). vertex(240). vertex(241). vertex(242). vertex(244). vertex(245). vertex(246). vertex(247). vertex(248). vertex(250). vertex(252). vertex(255). vertex(257). vertex(258). vertex(259). vertex(260). vertex(261). vertex(263). vertex(264). vertex(265). vertex(266). vertex(267). vertex(268). vertex(269). vertex(270). vertex(271). vertex(272). vertex(273). vertex(274). vertex(275). vertex(276). vertex(277). vertex(278). vertex(280). vertex(281). vertex(282). vertex(283). vertex(287). vertex(288). vertex(289). vertex(290). vertex(291). vertex(292). vertex(293). vertex(295). vertex(296). vertex(297). vertex(298). vertex(299). vertex(300). vertex(301). vertex(302). vertex(303). vertex(304). vertex(305). vertex(306). vertex(307). vertex(308). vertex(310). vertex(311). vertex(312). vertex(313). vertex(315). vertex(317). vertex(319). vertex(320). vertex(321). vertex(322). vertex(324). vertex(325). vertex(326). vertex(328). vertex(329). vertex(330). vertex(331). vertex(332). vertex(333). vertex(334). vertex(335). vertex(337). vertex(338). vertex(339). vertex(340). vertex(341). vertex(343). vertex(344). vertex(345). vertex(346). vertex(347). vertex(348). vertex(352). vertex(353). vertex(355). vertex(357). vertex(358). vertex(360). vertex(362). vertex(363). vertex(364). vertex(365). vertex(366). vertex(367). vertex(368). vertex(369). vertex(370). vertex(372). vertex(373). vertex(374). vertex(375). vertex(376). vertex(377). vertex(378). vertex(379). vertex(381). vertex(382). vertex(383). vertex(384). vertex(385). vertex(386). vertex(388). vertex(389). vertex(390). vertex(392). vertex(393). vertex(395). vertex(396). vertex(398). vertex(400). 
edge(1,2).
edge(2,1).edge(2,3).edge(2,22).
edge(3,2).edge(3,4).edge(3,23).
edge(4,3).edge(4,5).edge(4,24).
edge(5,4).edge(5,6).
edge(6,5).edge(6,7).edge(6,26).
edge(7,6).edge(7,8).
edge(8,7).edge(8,9).
edge(9,8).edge(9,10).edge(9,29).
edge(10,9).edge(10,30).
edge(12,13).edge(12,32).
edge(13,12).edge(13,14).edge(13,33).
edge(14,13).edge(14,15).edge(14,34).
edge(15,14).edge(15,16).edge(15,35).
edge(16,15).edge(16,17).edge(16,36).
edge(17,16).edge(17,37).
edge(19,20).edge(19,39).
edge(20,19).
edge(22,23).edge(22,2).edge(22,42).
edge(23,22).edge(23,24).edge(23,3).edge(23,43).
edge(24,23).edge(24,4).edge(24,44).
edge(26,6).edge(26,46).
edge(29,30).edge(29,9).edge(29,49).
edge(30,29).edge(30,31).edge(30,10).edge(30,50).
edge(31,30).edge(31,32).edge(31,51).
edge(32,31).edge(32,33).edge(32,12).edge(32,52).
edge(33,32).edge(33,34).edge(33,13).edge(33,53).
edge(34,33).edge(34,35).edge(34,14).edge(34,54).
edge(35,34).edge(35,36).edge(35,15).
edge(36,35).edge(36,37).edge(36,16).edge(36,56).
edge(37,36).edge(37,38).edge(37,17).edge(37,57).
edge(38,37).edge(38,39).edge(38,58).
edge(39,38).edge(39,19).edge(39,59).
edge(41,42).edge(41,61).
edge(42,41).edge(42,43).edge(42,22).edge(42,62).
edge(43,42).edge(43,44).edge(43,23).edge(43,63).
edge(44,43).edge(44,45).edge(44,24).edge(44,64).
edge(45,44).edge(45,46).edge(45,65).
edge(46,45).edge(46,47).edge(46,26).
edge(47,46).edge(47,48).edge(47,67).
edge(48,47).edge(48,49).
edge(49,48).edge(49,50).edge(49,29).edge(49,69).
edge(50,49).edge(50,51).edge(50,30).edge(50,70).
edge(51,50).edge(51,52).edge(51,31).edge(51,71).
edge(52,51).edge(52,53).edge(52,32).edge(52,72).
edge(53,52).edge(53,54).edge(53,33).edge(53,73).
edge(54,53).edge(54,34).edge(54,74).
edge(56,57).edge(56,36).edge(56,76).
edge(57,56).edge(57,58).edge(57,37).edge(57,77).
edge(58,57).edge(58,59).edge(58,38).edge(58,78).
edge(59,58).edge(59,60).edge(59,39).
edge(60,59).edge(60,80).
edge(61,62).edge(61,41).edge(61,81).
edge(62,61).edge(62,63).edge(62,42).
edge(63,62).edge(63,64).edge(63,43).
edge(64,63).edge(64,65).edge(64,44).edge(64,84).
edge(65,64).edge(65,45).edge(65,85).
edge(67,47).edge(67,87).
edge(69,70).edge(69,49).edge(69,89).
edge(70,69).edge(70,71).edge(70,50).edge(70,90).
edge(71,70).edge(71,72).edge(71,51).edge(71,91).
edge(72,71).edge(72,73).edge(72,52).edge(72,92).
edge(73,72).edge(73,74).edge(73,53).edge(73,93).
edge(74,73).edge(74,75).edge(74,54).edge(74,94).
edge(75,74).edge(75,76).
edge(76,75).edge(76,77).edge(76,56).
edge(77,76).edge(77,78).edge(77,57).edge(77,97).
edge(78,77).edge(78,58).
edge(80,60).edge(80,100).
edge(81,61).edge(81,101).
edge(84,85).edge(84,64).edge(84,104).
edge(85,84).edge(85,86).edge(85,65).edge(85,105).
edge(86,85).edge(86,87).edge(86,106).
edge(87,86).edge(87,88).edge(87,67).
edge(88,87).edge(88,89).edge(88,108).
edge(89,88).edge(89,90).edge(89,69).edge(89,109).
edge(90,89).edge(90,91).edge(90,70).
edge(91,90).edge(91,92).edge(91,71).edge(91,111).
edge(92,91).edge(92,93).edge(92,72).
edge(93,92).edge(93,94).edge(93,73).edge(93,113).
edge(94,93).edge(94,74).edge(94,114).
edge(97,77).edge(97,117).
edge(99,100).edge(99,119).
edge(100,99).edge(100,80).edge(100,120).
edge(101,102).edge(101,81).edge(101,121).
edge(102,101).edge(102,103).edge(102,122).
edge(103,102).edge(103,104).edge(103,123).
edge(104,103).edge(104,105).edge(104,84).edge(104,124).
edge(105,104).edge(105,106).edge(105,85).edge(105,125).
edge(106,105).edge(106,86).edge(106,126).
edge(108,109).edge(108,88).edge(108,128).
edge(109,108).edge(109,89).edge(109,129).
edge(111,91).
edge(113,114).edge(113,93).edge(113,133).
edge(114,113).edge(114,94).edge(114,134).
edge(117,118).edge(117,97).edge(117,137).
edge(118,117).edge(118,119).edge(118,138).
edge(119,118).edge(119,120).edge(119,99).edge(119,139).
edge(120,119).edge(120,100).
edge(121,122).edge(121,101).edge(121,141).
edge(122,121).edge(122,123).edge(122,102).
edge(123,122).edge(123,124).edge(123,103).edge(123,143).
edge(124,123).edge(124,125).edge(124,104).edge(124,144).
edge(125,124).edge(125,126).edge(125,105).edge(125,145).
edge(126,125).edge(126,106).
edge(128,129).edge(128,108).edge(128,148).
edge(129,128).edge(129,109).edge(129,149).
edge(132,133).edge(132,152).
edge(133,132).edge(133,134).edge(133,113).edge(133,153).
edge(134,133).edge(134,135).edge(134,114).edge(134,154).
edge(135,134).edge(135,136).edge(135,155).
edge(136,135).edge(136,137).edge(136,156).
edge(137,136).edge(137,138).edge(137,117).edge(137,157).
edge(138,137).edge(138,139).edge(138,118).edge(138,158).
edge(139,138).edge(139,119).edge(139,159).
edge(141,121).edge(141,161).
edge(143,144).edge(143,123).edge(143,163).
edge(144,143).edge(144,145).edge(144,124).edge(144,164).
edge(145,144).edge(145,125).edge(145,165).
edge(147,148).
edge(148,147).edge(148,149).edge(148,128).edge(148,168).
edge(149,148).edge(149,150).edge(149,129).edge(149,169).
edge(150,149).edge(150,151).edge(150,170).
edge(151,150).edge(151,152).edge(151,171).
edge(152,151).edge(152,153).edge(152,132).edge(152,172).
edge(153,152).edge(153,154).edge(153,133).edge(153,173).
edge(154,153).edge(154,155).edge(154,134).edge(154,174).
edge(155,154).edge(155,156).edge(155,135).edge(155,175).
edge(156,155).edge(156,157).edge(156,136).edge(156,176).
edge(157,156).edge(157,158).edge(157,137).
edge(158,157).edge(158,159).edge(158,138).edge(158,178).
edge(159,158).edge(159,160).edge(159,139).edge(159,179).
edge(160,159).edge(160,180).
edge(161,162).edge(161,141).edge(161,181).
edge(162,161).edge(162,163).edge(162,182).
edge(163,162).edge(163,164).edge(163,143).
edge(164,163).edge(164,165).edge(164,144).edge(164,184).
edge(165,164).edge(165,166).edge(165,145).
edge(166,165).edge(166,186).
edge(168,169).edge(168,148).edge(168,188).
edge(169,168).edge(169,170).edge(169,149).edge(169,189).
edge(170,169).edge(170,171).edge(170,150).edge(170,190).
edge(171,170).edge(171,172).edge(171,151).edge(171,191).
edge(172,171).edge(172,173).edge(172,152).edge(172,192).
edge(173,172).edge(173,174).edge(173,153).edge(173,193).
edge(174,173).edge(174,175).edge(174,154).edge(174,194).
edge(175,174).edge(175,176).edge(175,155).edge(175,195).
edge(176,175).edge(176,156).edge(176,196).
edge(178,179).edge(178,158).
edge(179,178).edge(179,180).edge(179,159).edge(179,199).
edge(180,179).edge(180,160).
edge(181,182).edge(181,161).
edge(182,181).edge(182,162).edge(182,202).
edge(184,164).edge(184,204).
edge(186,187).edge(186,166).edge(186,206).
edge(187,186).edge(187,188).edge(187,207).
edge(188,187).edge(188,189).edge(188,168).edge(188,208).
edge(189,188).edge(189,190).edge(189,169).edge(189,209).
edge(190,189).edge(190,191).edge(190,170).edge(190,210).
edge(191,190).edge(191,192).edge(191,171).edge(191,211).
edge(192,191).edge(192,193).edge(192,172).edge(192,212).
edge(193,192).edge(193,194).edge(193,173).
edge(194,193).edge(194,195).edge(194,174).edge(194,214).
edge(195,194).edge(195,196).edge(195,175).
edge(196,195).edge(196,197).edge(196,176).edge(196,216).
edge(197,196).edge(197,217).
edge(199,179).edge(199,219).
edge(202,182).edge(202,222).
edge(204,205).edge(204,184).edge(204,224).
edge(205,204).edge(205,206).edge(205,225).
edge(206,205).edge(206,207).edge(206,186).edge(206,226).
edge(207,206).edge(207,208).edge(207,187).edge(207,227).
edge(208,207).edge(208,209).edge(208,188).edge(208,228).
edge(209,208).edge(209,210).edge(209,189).edge(209,229).
edge(210,209).edge(210,211).edge(210,190).edge(210,230).
edge(211,210).edge(211,212).edge(211,191).edge(211,231).
edge(212,211).edge(212,192).edge(212,232).
edge(214,194).edge(214,234).
edge(216,217).edge(216,196).edge(216,236).
edge(217,216).edge(217,218).edge(217,197).edge(217,237).
edge(218,217).edge(218,219).edge(218,238).
edge(219,218).edge(219,220).edge(219,199).
edge(220,219).edge(220,240).
edge(221,222).edge(221,241).
edge(222,221).edge(222,223).edge(222,202).edge(222,242).
edge(223,222).edge(223,224).
edge(224,223).edge(224,225).edge(224,204).edge(224,244).
edge(225,224).edge(225,226).edge(225,205).edge(225,245).
edge(226,225).edge(226,227).edge(226,206).edge(226,246).
edge(227,226).edge(227,228).edge(227,207).edge(227,247).
edge(228,227).edge(228,229).edge(228,208).edge(228,248).
edge(229,228).edge(229,230).edge(229,209).
edge(230,229).edge(230,231).edge(230,210).edge(230,250).
edge(231,230).edge(231,232).edge(231,211).
edge(232,231).edge(232,212).edge(232,252).
edge(234,235).edge(234,214).
edge(235,234).edge(235,236).edge(235,255).
edge(236,235).edge(236,237).edge(236,216).
edge(237,236).edge(237,238).edge(237,217).edge(237,257).
edge(238,237).edge(238,218).edge(238,258).
edge(240,220).edge(240,260).
edge(241,242).edge(241,221).edge(241,261).
edge(242,241).edge(242,222).
edge(244,245).edge(244,224).edge(244,264).
edge(245,244).edge(245,246).edge(245,225).edge(245,265).
edge(246,245).edge(246,247).edge(246,226).edge(246,266).
edge(247,246).edge(247,248).edge(247,227).edge(247,267).
edge(248,247).edge(248,228).edge(248,268).
edge(250,230).edge(250,270).
edge(252,232).edge(252,272).
edge(255,235).edge(255,275).
edge(257,258).edge(257,237).edge(257,277).
edge(258,257).edge(258,259).edge(258,238).edge(258,278).
edge(259,258).edge(259,260).
edge(260,259).edge(260,240).edge(260,280).
edge(261,241).edge(261,281).
edge(263,264).edge(263,283).
edge(264,263).edge(264,265).edge(264,244).
edge(265,264).edge(265,266).edge(265,245).
edge(266,265).edge(266,267).edge(266,246).
edge(267,266).edge(267,268).edge(267,247).edge(267,287).
edge(268,267).edge(268,269).edge(268,248).edge(268,288).
edge(269,268).edge(269,270).edge(269,289).
edge(270,269).edge(270,271).edge(270,250).edge(270,290).
edge(271,270).edge(271,272).edge(271,291).
edge(272,271).edge(272,273).edge(272,252).edge(272,292).
edge(273,272).edge(273,274).edge(273,293).
edge(274,273).edge(274,275).
edge(275,274).edge(275,276).edge(275,255).edge(275,295).
edge(276,275).edge(276,277).edge(276,296).
edge(277,276).edge(277,278).edge(277,257).edge(277,297).
edge(278,277).edge(278,258).edge(278,298).
edge(280,260).edge(280,300).
edge(281,282).edge(281,261).edge(281,301).
edge(282,281).edge(282,283).edge(282,302).
edge(283,282).edge(283,263).edge(283,303).
edge(287,288).edge(287,267).edge(287,307).
edge(288,287).edge(288,289).edge(288,268).edge(288,308).
edge(289,288).edge(289,290).edge(289,269).
edge(290,289).edge(290,291).edge(290,270).edge(290,310).
edge(291,290).edge(291,292).edge(291,271).edge(291,311).
edge(292,291).edge(292,293).edge(292,272).edge(292,312).
edge(293,292).edge(293,273).edge(293,313).
edge(295,296).edge(295,275).edge(295,315).
edge(296,295).edge(296,297).edge(296,276).
edge(297,296).edge(297,298).edge(297,277).edge(297,317).
edge(298,297).edge(298,299).edge(298,278).
edge(299,298).edge(299,300).edge(299,319).
edge(300,299).edge(300,280).edge(300,320).
edge(301,302).edge(301,281).edge(301,321).
edge(302,301).edge(302,303).edge(302,282).edge(302,322).
edge(303,302).edge(303,304).edge(303,283).
edge(304,303).edge(304,305).edge(304,324).
edge(305,304).edge(305,306).edge(305,325).
edge(306,305).edge(306,307).edge(306,326).
edge(307,306).edge(307,308).edge(307,287).
edge(308,307).edge(308,288).edge(308,328).
edge(310,311).edge(310,290).edge(310,330).
edge(311,310).edge(311,312).edge(311,291).edge(311,331).
edge(312,311).edge(312,313).edge(312,292).edge(312,332).
edge(313,312).edge(313,293).edge(313,333).
edge(315,295).edge(315,335).
edge(317,297).edge(317,337).
edge(319,320).edge(319,299).edge(319,339).
edge(320,319).edge(320,300).edge(320,340).
edge(321,322).edge(321,301).edge(321,341).
edge(322,321).edge(322,302).
edge(324,325).edge(324,304).edge(324,344).
edge(325,324).edge(325,326).edge(325,305).edge(325,345).
edge(326,325).edge(326,306).edge(326,346).
edge(328,329).edge(328,308).edge(328,348).
edge(329,328).edge(329,330).
edge(330,329).edge(330,331).edge(330,310).
edge(331,330).edge(331,332).edge(331,311).
edge(332,331).edge(332,333).edge(332,312).edge(332,352).
edge(333,332).edge(333,334).edge(333,313).edge(333,353).
edge(334,333).edge(334,335).
edge(335,334).edge(335,315).edge(335,355).
edge(337,338).edge(337,317).edge(337,357).
edge(338,337).edge(338,339).edge(338,358).
edge(339,338).edge(339,340).edge(339,319).
edge(340,339).edge(340,320).edge(340,360).
edge(341,321).
edge(343,344).edge(343,363).
edge(344,343).edge(344,345).edge(344,324).edge(344,364).
edge(345,344).edge(345,346).edge(345,325).edge(345,365).
edge(346,345).edge(346,347).edge(346,326).edge(346,366).
edge(347,346).edge(347,348).edge(347,367).
edge(348,347).edge(348,328).edge(348,368).
edge(352,353).edge(352,332).edge(352,372).
edge(353,352).edge(353,333).edge(353,373).
edge(355,335).edge(355,375).
edge(357,358).edge(357,337).edge(357,377).
edge(358,357).edge(358,338).edge(358,378).
edge(360,340).
edge(362,363).edge(362,382).
edge(363,362).edge(363,364).edge(363,343).edge(363,383).
edge(364,363).edge(364,365).edge(364,344).edge(364,384).
edge(365,364).edge(365,366).edge(365,345).edge(365,385).
edge(366,365).edge(366,367).edge(366,346).edge(366,386).
edge(367,366).edge(367,368).edge(367,347).
edge(368,367).edge(368,369).edge(368,348).edge(368,388).
edge(369,368).edge(369,370).edge(369,389).
edge(370,369).edge(370,390).
edge(372,373).edge(372,352).edge(372,392).
edge(373,372).edge(373,374).edge(373,353).edge(373,393).
edge(374,373).edge(374,375).
edge(375,374).edge(375,376).edge(375,355).edge(375,395).
edge(376,375).edge(376,377).edge(376,396).
edge(377,376).edge(377,378).edge(377,357).
edge(378,377).edge(378,379).edge(378,358).edge(378,398).
edge(379,378).
edge(381,382).
edge(382,381).edge(382,383).edge(382,362).
edge(383,382).edge(383,384).edge(383,363).
edge(384,383).edge(384,385).edge(384,364).
edge(385,384).edge(385,386).edge(385,365).
edge(386,385).edge(386,366).
edge(388,389).edge(388,368).
edge(389,388).edge(389,390).edge(389,369).
edge(390,389).edge(390,370).
edge(392,393).edge(392,372).
edge(393,392).edge(393,373).
edge(395,396).edge(395,375).
edge(396,395).edge(396,376).
edge(398,378).