#program base.

vertex(1). vertex(2). vertex(3). vertex(4). vertex(5). vertex(6). vertex(7). vertex(9). vertex(10). vertex(11). vertex(12). vertex(13). vertex(14). vertex(15). vertex(16). vertex(17). vertex(20). vertex(21). vertex(22). vertex(23). vertex(24). vertex(25). vertex(26). vertex(27). vertex(28). vertex(29). vertex(30). vertex(31). vertex(32). vertex(33). vertex(34). vertex(35). vertex(36). vertex(37). vertex(38). vertex(39). vertex(40). vertex(41). vertex(42). vertex(43). vertex(44). vertex(45). vertex(46). vertex(47). vertex(50). vertex(51). vertex(52). vertex(53). vertex(54). vertex(55). vertex(57). vertex(58). vertex(61). vertex(62). vertex(63). vertex(64). vertex(65). vertex(66). vertex(67). vertex(68). vertex(69). vertex(70). vertex(71). vertex(72). vertex(73). vertex(74). vertex(75). vertex(77). vertex(78). vertex(79). vertex(80). vertex(82). vertex(83). vertex(84). vertex(85). vertex(86). vertex(87). vertex(88). vertex(89). vertex(90). vertex(91). vertex(92). vertex(93). vertex(94). vertex(95). vertex(97). vertex(98). vertex(99). vertex(100). vertex(101). vertex(102). vertex(103). vertex(104). vertex(105). vertex(106). vertex(107). vertex(108). vertex(109). vertex(111). vertex(112). vertex(113). vertex(114). vertex(115). vertex(116). vertex(117). vertex(118). vertex(119). vertex(120). vertex(122). vertex(123). vertex(124). vertex(126). vertex(128). vertex(129). vertex(130). vertex(131). vertex(132). vertex(133). vertex(134). vertex(135). vertex(136). vertex(137). vertex(138). vertex(139). vertex(140). vertex(141). vertex(142). vertex(143). vertex(144). vertex(145). vertex(146). vertex(147). vertex(148). vertex(150). vertex(151). vertex(152). vertex(153). vertex(154). vertex(155). vertex(156). vertex(157). vertex(158). vertex(159). vertex(160). vertex(161). vertex(162). vertex(164). vertex(165). vertex(166). vertex(168). vertex(169). vertex(170). vertex(171). vertex(172). vertex(174). vertex(177). vertex(178). vertex(179). vertex(181). vertex(182). vertex(183). vertex(184). vertex(185). vertex(186). vertex(187). vertex(188). vertex(190). vertex(191). vertex(192). vertex(194). vertex(195). vertex(196). vertex(197). vertex(198). vertex(199). vertex(200). vertex(201). vertex(202). vertex(203). vertex(204). vertex(205). vertex(206). vertex(207). vertex(208). vertex(209). vertex(210). vertex(211). vertex(212). vertex(213). vertex(214). vertex(215). vertex(216). vertex(217). vertex(219). vertex(220). vertex(221). vertex(222). vertex(223). vertex(224). vertex(225). vertex(226). vertex(227). vertex(230). vertex(231). vertex(232). vertex(233). vertex(235). vertex(236). vertex(237). vertex(238). vertex(239). vertex(240). vertex(242). vertex(243). vertex(244). vertex(245). vertex(247). vertex(249). vertex(250). vertex(251). vertex(253). vertex(255). vertex(256). vertex(257). vertex(258). vertex(259). vertex(260). vertex(262). vertex(263). vertex(264). vertex(265). vertex(266). vertex(267). vertex(268). vertex(269). vertex(271). vertex(273). vertex(274). vertex(275). vertex(276). vertex(277). vertex(278). vertex(279). vertex(280). vertex(281). vertex(282). vertex(283). vertex(284). vertex(286). vertex(287). vertex(290). vertex(291). vertex(292). vertex(293). vertex(294). vertex(295). vertex(296). vertex(297). vertex(298). vertex(299). vertex(300). vertex(301). vertex(302). vertex(303). vertex(304). vertex(305). vertex(306). vertex(307). vertex(308). vertex(310). vertex(311). vertex(312). vertex(313). vertex(314). vertex(315). vertex(317). vertex(318). vertex(319). vertex(320). vertex(322). vertex(323). vertex(324). vertex(325). vertex(326). vertex(327). vertex(328). vertex(329). vertex(330). vertex(331). vertex(332). vertex(333). vertex(334). vertex(335). vertex(336). vertex(337). vertex(338). vertex(340). vertex(341). vertex(342). vertex(343). vertex(344). vertex(345). vertex(346). vertex(347). vertex(348). vertex(349). vertex(350). vertex(351). vertex(352). vertex(353). vertex(354). vertex(355). vertex(356). vertex(357). vertex(358). vertex(359). vertex(360). vertex(363). vertex(364). vertex(365). vertex(366). vertex(368). vertex(369). vertex(370). vertex(371). vertex(372). vertex(373). vertex(374). vertex(375). vertex(377). vertex(379). vertex(380). vertex(381). vertex(382). vertex(383). vertex(385). vertex(386). vertex(387). vertex(388). vertex(389). vertex(390). vertex(391). vertex(392). vertex(393). vertex(394). vertex(395). vertex(396). vertex(397). vertex(398). vertex(399). vertex(400). 
edge(1,2).edge(1,21).
edge(2,1).edge(2,3).edge(2,22).
edge(3,2).edge(3,4).edge(3,23).
edge(4,3).edge(4,5).edge(4,24).
edge(5,4).edge(5,6).edge(5,25).
edge(6,5).edge(6,7).edge(6,26).
edge(7,6).edge(7,27).
edge(9,10).edge(9,29).
edge(10,9).edge(10,11).edge(10,30).
edge(11,10).edge(11,12).edge(11,31).
edge(12,11).edge(12,13).edge(12,32).
edge(13,12).edge(13,14).edge(13,33).
edge(14,13).edge(14,15).edge(14,34).
edge(15,14).edge(15,16).edge(15,35).
edge(16,15).edge(16,17).edge(16,36).
edge(17,16).edge(17,37).
edge(20,40).
edge(21,22).edge(21,1).edge(21,41).
edge(22,21).edge(22,23).edge(22,2).edge(22,42).
edge(23,22).edge(23,24).edge(23,3).edge(23,43).
edge(24,23).edge(24,25).edge(24,4).edge(24,44).
edge(25,24).edge(25,26).edge(25,5).edge(25,45).
edge(26,25).edge(26,27).edge(26,6).edge(26,46).
edge(27,26).edge(27,28).edge(27,7).edge(27,47).
edge(28,27).edge(28,29).
edge(29,28).edge(29,30).edge(29,9).
edge(30,29).edge(30,31).edge(30,10).edge(30,50).
edge(31,30).edge(31,32).edge(31,11).edge(31,51).
edge(32,31).edge(32,33).edge(32,12).edge(32,52).
edge(33,32).edge(33,34).edge(33,13).edge(33,53).
edge(34,33).edge(34,35).edge(34,14).edge(34,54).
edge(35,34).edge(35,36).edge(35,15).edge(35,55).
edge(36,35).edge(36,37).edge(36,16).
edge(37,36).edge(37,38).edge(37,17).edge(37,57).
edge(38,37).edge(38,39).edge(38,58).
edge(39,38).edge(39,40).
edge(40,39).edge(40,20).
edge(41,42).edge(41,21).edge(41,61).
edge(42,41).edge(42,43).edge(42,22).edge(42,62).
edge(43,42).edge(43,44).edge(43,23).edge(43,63).
edge(44,43).edge(44,45).edge(44,24).edge(44,64).
edge(45,44).edge(45,46).edge(45,25).edge(45,65).
edge(46,45).edge(46,47).edge(46,26).edge(46,66).
edge(47,46).edge(47,27).edge(47,67).
edge(50,51).edge(50,30).edge(50,70).
edge(51,50).edge(51,52).edge(51,31).edge(51,71).
edge(52,51).edge(52,53).edge(52,32).edge(52,72).
edge(53,52).edge(53,54).edge(53,33).edge(53,73).
edge(54,53).edge(54,55).edge(54,34).edge(54,74).
edge(55,54).edge(55,35).edge(55,75).
edge(57,58).edge(57,37).edge(57,77).
edge(58,57).edge(58,38).edge(58,78).
edge(61,62).edge(61,41).
edge(62,61).edge(62,63).edge(62,42).edge(62,82).
edge(63,62).edge(63,64).edge(63,43).edge(63,83).
edge(64,63).edge(64,65).edge(64,44).edge(64,84).
edge(65,64).edge(65,66).edge(65,45).edge(65,85).
edge(66,65).edge(66,67).edge(66,46).edge(66,86).
edge(67,66).edge(67,68).edge(67,47).edge(67,87).
edge(68,67).edge(68,69).edge(68,88).
edge(69,68).edge(69,70).edge(69,89).
edge(70,69).edge(70,71).edge(70,50).edge(70,90).
edge(71,70).edge(71,72).edge(71,51).edge(71,91).
edge(72,71).edge(72,73).edge(72,52).edge(72,92).
edge(73,72).edge(73,74).edge(73,53).edge(73,93).
edge(74,73).edge(74,75).edge(74,54).edge(74,94).
edge(75,74).edge(75,55).edge(75,95).
edge(77,78).edge(77,57).edge(77,97).
edge(78,77).edge(78,79).edge(78,58).edge(78,98).
edge(79,78).edge(79,80).edge(79,99).
edge(80,79).edge(80,100).
edge(82,83).edge(82,62).edge(82,102).
edge(83,82).edge(83,84).edge(83,63).edge(83,103).
edge(84,83).edge(84,85).edge(84,64).edge(84,104).
edge(85,84).edge(85,86).edge(85,65).edge(85,105).
edge(86,85).edge(86,87).edge(86,66).edge(86,106).
edge(87,86).edge(87,88).edge(87,67).edge(87,107).
edge(88,87).edge(88,89).edge(88,68).edge(88,108).
edge(89,88).edge(89,90).edge(89,69).edge(89,109).
edge(90,89).edge(90,91).edge(90,70).
edge(91,90).edge(91,92).edge(91,71).edge(91,111).
edge(92,91).edge(92,93).edge(92,72).edge(92,112).
edge(93,92).edge(93,94).edge(93,73).edge(93,113).
edge(94,93).edge(94,95).edge(94,74).edge(94,114).
edge(95,94).edge(95,75).edge(95,115).
edge(97,98).edge(97,77).edge(97,117).
edge(98,97).edge(98,99).edge(98,78).edge(98,118).
edge(99,98).edge(99,100).edge(99,79).edge(99,119).
edge(100,99).edge(100,80).edge(100,120).
edge(101,102).
edge(102,101).edge(102,103).edge(102,82).edge(102,122).
edge(103,102).edge(103,104).edge(103,83).edge(103,123).
edge(104,103).edge(104,105).edge(104,84).edge(104,124).
edge(105,104).edge(105,106).edge(105,85).
edge(106,105).edge(106,107).edge(106,86).edge(106,126).
edge(107,106).edge(107,108).edge(107,87).
edge(108,107).edge(108,109).edge(108,88).edge(108,128).
edge(109,108).edge(109,89).edge(109,129).
edge(111,112).edge(111,91).edge(111,131).
edge(112,111).edge(112,113).edge(112,92).edge(112,132).
edge(113,112).edge(113,114).edge(113,93).edge(113,133).
edge(114,113).edge(114,115).edge(114,94).edge(114,134).
edge(115,114).edge(115,116).edge(115,95).edge(115,135).
edge(116,115).edge(116,117).edge(116,136).
edge(117,116).edge(117,118).edge(117,97).edge(117,137).
edge(118,117).edge(118,119).edge(118,98).edge(118,138).
edge(119,118).edge(119,120).edge(119,99).edge(119,139).
edge(120,119).edge(120,100).edge(120,140).
edge(122,123).edge(122,102).edge(122,142).
edge(123,122).edge(123,124).edge(123,103).edge(123,143).
edge(124,123).edge(124,104).edge(124,144).
edge(126,106).edge(126,146).
edge(128,129).edge(128,108).edge(128,148).
edge(129,128).edge(129,130).edge(129,109).
edge(130,129).edge(130,131).edge(130,150).
edge(131,130).edge(131,132).edge(131,111).edge(131,151).
edge(132,131).edge(132,133).edge(132,112).edge(132,152).
edge(133,132).edge(133,134).edge(133,113).edge(133,153).
edge(134,133).edge(134,135).edge(134,114).edge(134,154).
edge(135,134).edge(135,136).edge(135,115).edge(135,155).
edge(136,135).edge(136,137).edge(136,116).edge(136,156).
edge(137,136).edge(137,138).edge(137,117).edge(137,157).
edge(138,137).edge(138,139).edge(138,118).edge(138,158).
edge(139,138).edge(139,140).edge(139,119).edge(139,159).
edge(140,139).edge(140,120).edge(140,160).
edge(141,142).edge(141,161).
edge(142,141).edge(142,143).edge(142,122).edge(142,162).
edge(143,142).edge(143,144).edge(143,123).
edge(144,143).edge(144,145).edge(144,124).edge(144,164).
edge(145,144).edge(145,146).edge(145,165).
edge(146,145).edge(146,147).edge(146,126).edge(146,166).
edge(147,146).edge(147,148).
edge(148,147).edge(148,128).edge(148,168).
edge(150,151).edge(150,130).edge(150,170).
edge(151,150).edge(151,152).edge(151,131).edge(151,171).
edge(152,151).edge(152,153).edge(152,132).edge(152,172).
edge(153,152).edge(153,154).edge(153,133).
edge(154,153).edge(154,155).edge(154,134).edge(154,174).
edge(155,154).edge(155,156).edge(155,135).
edge(156,155).edge(156,157).edge(156,136).
edge(157,156).edge(157,158).edge(157,137).edge(157,177).
edge(158,157).edge(158,159).edge(158,138).edge(158,178).
edge(159,158).edge(159,160).edge(159,139).edge(159,179).
edge(160,159).edge(160,140).
edge(161,162).edge(161,141).edge(161,181).
edge(162,161).edge(162,142).edge(162,182).
edge(164,165).edge(164,144).edge(164,184).
edge(165,164).edge(165,166).edge(165,145).edge(165,185).
edge(166,165).edge(166,146).edge(166,186).
edge(168,169).edge(168,148).edge(168,188).
edge(169,168).edge(169,170).
edge(170,169).edge(170,171).edge(170,150).edge(170,190).
edge(171,170).edge(171,172).edge(171,151).edge(171,191).
edge(172,171).edge(172,152).edge(172,192).
edge(174,154).edge(174,194).
edge(177,178).edge(177,157).edge(177,197).
edge(178,177).edge(178,179).edge(178,158).edge(178,198).
edge(179,178).edge(179,159).edge(179,199).
edge(181,182).edge(181,161).edge(181,201).
edge(182,181).edge(182,183).edge(182,162).edge(182,202).
edge(183,182).edge(183,184).edge(183,203).
edge(184,183).edge(184,185).edge(184,164).edge(184,204).
edge(185,184).edge(185,186).edge(185,165).edge(185,205).
edge(186,185).edge(186,187).edge(186,166).edge(186,206).
edge(187,186).edge(187,188).edge(187,207).
edge(188,187).edge(188,168).edge(188,208).
edge(190,191).edge(190,170).edge(190,210).
edge(191,190).edge(191,192).edge(191,171).edge(191,211).
edge(192,191).edge(192,172).edge(192,212).
edge(194,195).edge(194,174).edge(194,214).
edge(195,194).edge(195,196).edge(195,215).
edge(196,195).edge(196,197).edge(196,216).
edge(197,196).edge(197,198).edge(197,177).edge(197,217).
edge(198,197).edge(198,199).edge(198,178).
edge(199,198).edge(199,200).edge(199,179).edge(199,219).
edge(200,199).edge(200,220).
edge(201,202).edge(201,181).edge(201,221).
edge(202,201).edge(202,203).edge(202,182).edge(202,222).
edge(203,202).edge(203,204).edge(203,183).edge(203,223).
edge(204,203).edge(204,205).edge(204,184).edge(204,224).
edge(205,204).edge(205,206).edge(205,185).edge(205,225).
edge(206,205).edge(206,207).edge(206,186).edge(206,226).
edge(207,206).edge(207,208).edge(207,187).edge(207,227).
edge(208,207).edge(208,209).edge(208,188).
edge(209,208).edge(209,210).
edge(210,209).edge(210,211).edge(210,190).edge(210,230).
edge(211,210).edge(211,212).edge(211,191).edge(211,231).
edge(212,211).edge(212,213).edge(212,192).edge(212,232).
edge(213,212).edge(213,214).edge(213,233).
edge(214,213).edge(214,215).edge(214,194).
edge(215,214).edge(215,216).edge(215,195).edge(215,235).
edge(216,215).edge(216,217).edge(216,196).edge(216,236).
edge(217,216).edge(217,197).edge(217,237).
edge(219,220).edge(219,199).edge(219,239).
edge(220,219).edge(220,200).edge(220,240).
edge(221,222).edge(221,201).
edge(222,221).edge(222,223).edge(222,202).edge(222,242).
edge(223,222).edge(223,224).edge(223,203).edge(223,243).
edge(224,223).edge(224,225).edge(224,204).edge(224,244).
edge(225,224).edge(225,226).edge(225,205).edge(225,245).
edge(226,225).edge(226,227).edge(226,206).
edge(227,226).edge(227,207).edge(227,247).
edge(230,231).edge(230,210).edge(230,250).
edge(231,230).edge(231,232).edge(231,211).edge(231,251).
edge(232,231).edge(232,233).edge(232,212).
edge(233,232).edge(233,213).edge(233,253).
edge(235,236).edge(235,215).edge(235,255).
edge(236,235).edge(236,237).edge(236,216).edge(236,256).
edge(237,236).edge(237,238).edge(237,217).edge(237,257).
edge(238,237).edge(238,239).edge(238,258).
edge(239,238).edge(239,240).edge(239,219).edge(239,259).
edge(240,239).edge(240,220).edge(240,260).
edge(242,243).edge(242,222).edge(242,262).
edge(243,242).edge(243,244).edge(243,223).edge(243,263).
edge(244,243).edge(244,245).edge(244,224).edge(244,264).
edge(245,244).edge(245,225).edge(245,265).
edge(247,227).edge(247,267).
edge(249,250).edge(249,269).
edge(250,249).edge(250,251).edge(250,230).
edge(251,250).edge(251,231).edge(251,271).
edge(253,233).edge(253,273).
edge(255,256).edge(255,235).edge(255,275).
edge(256,255).edge(256,257).edge(256,236).edge(256,276).
edge(257,256).edge(257,258).edge(257,237).edge(257,277).
edge(258,257).edge(258,259).edge(258,238).edge(258,278).
edge(259,258).edge(259,260).edge(259,239).edge(259,279).
edge(260,259).edge(260,240).edge(260,280).
edge(262,263).edge(262,242).edge(262,282).
edge(263,262).edge(263,264).edge(263,243).edge(263,283).
edge(264,263).edge(264,265).edge(264,244).edge(264,284).
edge(265,264).edge(265,266).edge(265,245).
edge(266,265).edge(266,267).edge(266,286).
edge(267,266).edge(267,268).edge(267,247).edge(267,287).
edge(268,267).edge(268,269).
edge(269,268).edge(269,249).
edge(271,251).edge(271,291).
edge(273,274).edge(273,253).edge(273,293).
edge(274,273).edge(274,275).edge(274,294).
edge(275,274).edge(275,276).edge(275,255).edge(275,295).
edge(276,275).edge(276,277).edge(276,256).edge(276,296).
edge(277,276).edge(277,278).edge(277,257).edge(277,297).
edge(278,277).edge(278,279).edge(278,258).edge(278,298).
edge(279,278).edge(279,280).edge(279,259).edge(279,299).
edge(280,279).edge(280,260).edge(280,300).
edge(281,282).edge(281,301).
edge(282,281).edge(282,283).edge(282,262).edge(282,302).
edge(283,282).edge(283,284).edge(283,263).edge(283,303).
edge(284,283).edge(284,264).edge(284,304).
edge(286,287).edge(286,266).edge(286,306).
edge(287,286).edge(287,267).edge(287,307).
edge(290,291).edge(290,310).
edge(291,290).edge(291,292).edge(291,271).edge(291,311).
edge(292,291).edge(292,293).edge(292,312).
edge(293,292).edge(293,294).edge(293,273).edge(293,313).
edge(294,293).edge(294,295).edge(294,274).edge(294,314).
edge(295,294).edge(295,296).edge(295,275).edge(295,315).
edge(296,295).edge(296,297).edge(296,276).
edge(297,296).edge(297,298).edge(297,277).edge(297,317).
edge(298,297).edge(298,299).edge(298,278).edge(298,318).
edge(299,298).edge(299,300).edge(299,279).edge(299,319).
edge(300,299).edge(300,280).edge(300,320).
edge(301,302).edge(301,281).
edge(302,301).edge(302,303).edge(302,282).edge(302,322).
edge(303,302).edge(303,304).edge(303,283).edge(303,323).
edge(304,303).edge(304,305).edge(304,284).edge(304,324).
edge(305,304).edge(305,306).edge(305,325).
edge(306,305).edge(306,307).edge(306,286).edge(306,326).
edge(307,306).edge(307,308).edge(307,287).edge(307,327).
edge(308,307).edge(308,328).
edge(310,311).edge(310,290).edge(310,330).
edge(311,310).edge(311,312).edge(311,291).edge(311,331).
edge(312,311).edge(312,313).edge(312,292).edge(312,332).
edge(313,312).edge(313,314).edge(313,293).edge(313,333).
edge(314,313).edge(314,315).edge(314,294).edge(314,334).
edge(315,314).edge(315,295).edge(315,335).
edge(317,318).edge(317,297).edge(317,337).
edge(318,317).edge(318,319).edge(318,298).edge(318,338).
edge(319,318).edge(319,320).edge(319,299).
edge(320,319).edge(320,300).edge(320,340).
edge(322,323).edge(322,302).edge(322,342).
edge(323,322).edge(323,324).edge(323,303).edge(323,343).
edge(324,323).edge(324,325).edge(324,304).edge(324,344).
edge(325,324).edge(325,326).edge(325,305).edge(325,345).
edge(326,325).edge(326,327).edge(326,306).edge(326,346).
edge(327,326).edge(327,328).edge(327,307).edge(327,347).
edge(328,327).edge(328,329).edge(328,308).edge(328,348).
edge(329,328).edge(329,330).edge(329,349).
edge(330,329).edge(330,331).edge(330,310).edge(330,350).
edge(331,330).edge(331,332).edge(331,311).edge(331,351).
edge(332,331).edge(332,333).edge(332,312).edge(332,352).
edge(333,332).edge(333,334).edge(333,313).edge(333,353).
edge(334,333).edge(334,335).edge(334,314).edge(334,354).
edge(335,334).edge(335,336).edge(335,315).edge(335,355).
edge(336,335).edge(336,337).edge(336,356).
edge(337,336).edge(337,338).edge(337,317).edge(337,357).
edge(338,337).edge(338,318).edge(338,358).
edge(340,320).edge(340,360).
edge(341,342).
edge(342,341).edge(342,343).edge(342,322).
edge(343,342).edge(343,344).edge(343,323).edge(343,363).
edge(344,343).edge(344,345).edge(344,324).edge(344,364).
edge(345,344).edge(345,346).edge(345,325).edge(345,365).
edge(346,345).edge(346,347).edge(346,326).edge(346,366).
edge(347,346).edge(347,348).edge(347,327).
edge(348,347).edge(348,349).edge(348,328).edge(348,368).
edge(349,348).edge(349,350).edge(349,329).edge(349,369).
edge(350,349).edge(350,351).edge(350,330).edge(350,370).
edge(351,350).edge(351,352).edge(351,331).edge(351,371).
edge(352,351).edge(352,353).edge(352,332).edge(352,372).
edge(353,352).edge(353,354).edge(353,333).edge(353,373).
edge(354,353).edge(354,355).edge(354,334).edge(354,374).
edge(355,354).edge(355,356).edge(355,335).edge(355,375).
edge(356,355).edge(356,357).edge(356,336).
edge(357,356).edge(357,358).edge(357,337).edge(357,377).
edge(358,357).edge(358,359).edge(358,338).
edge(359,358).edge(359,360).edge(359,379).
edge(360,359).edge(360,340).edge(360,380).
edge(363,364).edge(363,343).edge(363,383).
edge(364,363).edge(364,365).edge(364,344).
edge(365,364).edge(365,366).edge(365,345).edge(365,385).
edge(366,365).edge(366,346).edge(366,386).
edge(368,369).edge(368,348).edge(368,388).
edge(369,368).edge(369,370).edge(369,349).edge(369,389).
edge(370,369).edge(370,371).edge(370,350).edge(370,390).
edge(371,370).edge(371,372).edge(371,351).edge(371,391).
edge(372,371).edge(372,373).edge(372,352).edge(372,392).
edge(373,372).edge(373,374).edge(373,353).edge(373,393).
edge(374,373).edge(374,375).edge(374,354).edge(374,394).
edge(375,374).edge(375,355).edge(375,395).
edge(377,357).edge(377,397).
edge(379,380).edge(379,359).edge(379,399).
edge(380,379).edge(380,360).edge(380,400).
edge(381,382).
edge(382,381).edge(382,383).
edge(383,382).edge(383,363).
edge(385,386).edge(385,365).
edge(386,385).edge(386,387).edge(386,366).
edge(387,386).edge(387,388).
edge(388,387).edge(388,389).edge(388,368).
edge(389,388).edge(389,390).edge(389,369).
edge(390,389).edge(390,391).edge(390,370).
edge(391,390).edge(391,392).edge(391,371).
edge(392,391).edge(392,393).edge(392,372).
edge(393,392).edge(393,394).edge(393,373).
edge(394,393).edge(394,395).edge(394,374).
edge(395,394).edge(395,396).edge(395,375).
edge(396,395).edge(396,397).
edge(397,396).edge(397,398).edge(397,377).
edge(398,397).edge(398,399).
edge(399,398).edge(399,400).edge(399,379).
edge(400,399).edge(400,380).