#program base.

vertex(4). vertex(6). vertex(10). vertex(14). vertex(18). vertex(22). vertex(23). vertex(24). vertex(26). vertex(27). vertex(28). vertex(29). vertex(30). vertex(31). vertex(32). vertex(34). vertex(35). vertex(36). vertex(38). vertex(39). vertex(40). vertex(42). vertex(43). vertex(44). vertex(46). vertex(47). vertex(48). vertex(50). vertex(51). vertex(52). vertex(54). vertex(55). vertex(56). vertex(57). vertex(58). vertex(59). vertex(60). vertex(61). vertex(62). vertex(63). vertex(64). vertex(66). vertex(67). vertex(68). vertex(70). vertex(71). vertex(72). vertex(73). vertex(74). vertex(75). vertex(76). vertex(78). vertex(79). vertex(80). vertex(84). vertex(87). vertex(92). vertex(95). vertex(102). vertex(103). vertex(104). vertex(105). vertex(106). vertex(107). vertex(108). vertex(110). vertex(111). vertex(112). vertex(113). vertex(114). vertex(115). vertex(116). vertex(117). vertex(118). vertex(119). vertex(120). vertex(121). vertex(122). vertex(123). vertex(124). vertex(126). vertex(127). vertex(128). vertex(129). vertex(130). vertex(131). vertex(132). vertex(134). vertex(135). vertex(136). vertex(138). vertex(139). vertex(140). vertex(142). vertex(143). vertex(144). vertex(146). vertex(147). vertex(148). vertex(150). vertex(151). vertex(152). vertex(154). vertex(155). vertex(156). vertex(158). vertex(159). vertex(160). vertex(167). vertex(175). vertex(179). vertex(181). vertex(182). vertex(183). vertex(184). vertex(186). vertex(187). vertex(188). vertex(189). vertex(190). vertex(191). vertex(192). vertex(194). vertex(195). vertex(196). vertex(197). vertex(198). vertex(199). vertex(200). vertex(202). vertex(203). vertex(204). vertex(205). vertex(206). vertex(207). vertex(208). vertex(210). vertex(211). vertex(212). vertex(214). vertex(215). vertex(216). vertex(218). vertex(219). vertex(220). vertex(222). vertex(223). vertex(224). vertex(226). vertex(227). vertex(228). vertex(230). vertex(231). vertex(232). vertex(233). vertex(234). vertex(235). vertex(236). vertex(238). vertex(239). vertex(240). vertex(246). vertex(250). vertex(259). vertex(262). vertex(263). vertex(264). vertex(266). vertex(267). vertex(268). vertex(269). vertex(270). vertex(271). vertex(272). vertex(274). vertex(275). vertex(276). vertex(278). vertex(279). vertex(280). vertex(282). vertex(283). vertex(284). vertex(286). vertex(287). vertex(288). vertex(290). vertex(291). vertex(292). vertex(293). vertex(294). vertex(295). vertex(296). vertex(297). vertex(298). vertex(299). vertex(300). vertex(301). vertex(302). vertex(303). vertex(304). vertex(306). vertex(307). vertex(308). vertex(310). vertex(311). vertex(312). vertex(314). vertex(315). vertex(316). vertex(318). vertex(319). vertex(320). vertex(323). vertex(327). vertex(332). vertex(339). vertex(341). vertex(342). vertex(343). vertex(344). vertex(346). vertex(347). vertex(348). vertex(350). vertex(351). vertex(352). vertex(354). vertex(355). vertex(356). vertex(358). vertex(359). vertex(360). vertex(362). vertex(363). vertex(364). vertex(366). vertex(367). vertex(368). vertex(369). vertex(370). vertex(371). vertex(372). vertex(374). vertex(375). vertex(376). vertex(377). vertex(378). vertex(379). vertex(380). vertex(382). vertex(383). vertex(384). vertex(385). vertex(386). vertex(387). vertex(388). vertex(390). vertex(391). vertex(392). vertex(394). vertex(395). vertex(396). vertex(398). vertex(399). vertex(400). 
edge(4,24).
edge(6,26).
edge(10,30).
edge(14,34).
edge(18,38).
edge(22,23).edge(22,42).
edge(23,22).edge(23,24).edge(23,43).
edge(24,23).edge(24,4).edge(24,44).
edge(26,27).edge(26,6).edge(26,46).
edge(27,26).edge(27,28).edge(27,47).
edge(28,27).edge(28,29).edge(28,48).
edge(29,28).edge(29,30).
edge(30,29).edge(30,31).edge(30,10).edge(30,50).
edge(31,30).edge(31,32).edge(31,51).
edge(32,31).edge(32,52).
edge(34,35).edge(34,14).edge(34,54).
edge(35,34).edge(35,36).edge(35,55).
edge(36,35).edge(36,56).
edge(38,39).edge(38,18).edge(38,58).
edge(39,38).edge(39,40).edge(39,59).
edge(40,39).edge(40,60).
edge(42,43).edge(42,22).edge(42,62).
edge(43,42).edge(43,44).edge(43,23).edge(43,63).
edge(44,43).edge(44,24).edge(44,64).
edge(46,47).edge(46,26).edge(46,66).
edge(47,46).edge(47,48).edge(47,27).edge(47,67).
edge(48,47).edge(48,28).edge(48,68).
edge(50,51).edge(50,30).edge(50,70).
edge(51,50).edge(51,52).edge(51,31).edge(51,71).
edge(52,51).edge(52,32).edge(52,72).
edge(54,55).edge(54,34).edge(54,74).
edge(55,54).edge(55,56).edge(55,35).edge(55,75).
edge(56,55).edge(56,57).edge(56,36).edge(56,76).
edge(57,56).edge(57,58).
edge(58,57).edge(58,59).edge(58,38).edge(58,78).
edge(59,58).edge(59,60).edge(59,39).edge(59,79).
edge(60,59).edge(60,40).edge(60,80).
edge(61,62).
edge(62,61).edge(62,63).edge(62,42).
edge(63,62).edge(63,64).edge(63,43).
edge(64,63).edge(64,44).edge(64,84).
edge(66,67).edge(66,46).
edge(67,66).edge(67,68).edge(67,47).edge(67,87).
edge(68,67).edge(68,48).
edge(70,71).edge(70,50).
edge(71,70).edge(71,72).edge(71,51).
edge(72,71).edge(72,73).edge(72,52).edge(72,92).
edge(73,72).edge(73,74).
edge(74,73).edge(74,75).edge(74,54).
edge(75,74).edge(75,76).edge(75,55).edge(75,95).
edge(76,75).edge(76,56).
edge(78,79).edge(78,58).
edge(79,78).edge(79,80).edge(79,59).
edge(80,79).edge(80,60).
edge(84,64).edge(84,104).
edge(87,67).edge(87,107).
edge(92,72).edge(92,112).
edge(95,75).edge(95,115).
edge(102,103).edge(102,122).
edge(103,102).edge(103,104).edge(103,123).
edge(104,103).edge(104,105).edge(104,84).edge(104,124).
edge(105,104).edge(105,106).
edge(106,105).edge(106,107).edge(106,126).
edge(107,106).edge(107,108).edge(107,87).edge(107,127).
edge(108,107).edge(108,128).
edge(110,111).edge(110,130).
edge(111,110).edge(111,112).edge(111,131).
edge(112,111).edge(112,113).edge(112,92).edge(112,132).
edge(113,112).edge(113,114).
edge(114,113).edge(114,115).edge(114,134).
edge(115,114).edge(115,116).edge(115,95).edge(115,135).
edge(116,115).edge(116,117).edge(116,136).
edge(117,116).edge(117,118).
edge(118,117).edge(118,119).edge(118,138).
edge(119,118).edge(119,120).edge(119,139).
edge(120,119).edge(120,140).
edge(121,122).
edge(122,121).edge(122,123).edge(122,102).edge(122,142).
edge(123,122).edge(123,124).edge(123,103).edge(123,143).
edge(124,123).edge(124,104).edge(124,144).
edge(126,127).edge(126,106).edge(126,146).
edge(127,126).edge(127,128).edge(127,107).edge(127,147).
edge(128,127).edge(128,129).edge(128,108).edge(128,148).
edge(129,128).edge(129,130).
edge(130,129).edge(130,131).edge(130,110).edge(130,150).
edge(131,130).edge(131,132).edge(131,111).edge(131,151).
edge(132,131).edge(132,112).edge(132,152).
edge(134,135).edge(134,114).edge(134,154).
edge(135,134).edge(135,136).edge(135,115).edge(135,155).
edge(136,135).edge(136,116).edge(136,156).
edge(138,139).edge(138,118).edge(138,158).
edge(139,138).edge(139,140).edge(139,119).edge(139,159).
edge(140,139).edge(140,120).edge(140,160).
edge(142,143).edge(142,122).
edge(143,142).edge(143,144).edge(143,123).
edge(144,143).edge(144,124).
edge(146,147).edge(146,126).
edge(147,146).edge(147,148).edge(147,127).edge(147,167).
edge(148,147).edge(148,128).
edge(150,151).edge(150,130).
edge(151,150).edge(151,152).edge(151,131).
edge(152,151).edge(152,132).
edge(154,155).edge(154,134).
edge(155,154).edge(155,156).edge(155,135).edge(155,175).
edge(156,155).edge(156,136).
edge(158,159).edge(158,138).
edge(159,158).edge(159,160).edge(159,139).edge(159,179).
edge(160,159).edge(160,140).
edge(167,147).edge(167,187).
edge(175,155).edge(175,195).
edge(179,159).edge(179,199).
edge(181,182).
edge(182,181).edge(182,183).edge(182,202).
edge(183,182).edge(183,184).edge(183,203).
edge(184,183).edge(184,204).
edge(186,187).edge(186,206).
edge(187,186).edge(187,188).edge(187,167).edge(187,207).
edge(188,187).edge(188,189).edge(188,208).
edge(189,188).edge(189,190).
edge(190,189).edge(190,191).edge(190,210).
edge(191,190).edge(191,192).edge(191,211).
edge(192,191).edge(192,212).
edge(194,195).edge(194,214).
edge(195,194).edge(195,196).edge(195,175).edge(195,215).
edge(196,195).edge(196,197).edge(196,216).
edge(197,196).edge(197,198).
edge(198,197).edge(198,199).edge(198,218).
edge(199,198).edge(199,200).edge(199,179).edge(199,219).
edge(200,199).edge(200,220).
edge(202,203).edge(202,182).edge(202,222).
edge(203,202).edge(203,204).edge(203,183).edge(203,223).
edge(204,203).edge(204,205).edge(204,184).edge(204,224).
edge(205,204).edge(205,206).
edge(206,205).edge(206,207).edge(206,186).edge(206,226).
edge(207,206).edge(207,208).edge(207,187).edge(207,227).
edge(208,207).edge(208,188).edge(208,228).
edge(210,211).edge(210,190).edge(210,230).
edge(211,210).edge(211,212).edge(211,191).edge(211,231).
edge(212,211).edge(212,192).edge(212,232).
edge(214,215).edge(214,194).edge(214,234).
edge(215,214).edge(215,216).edge(215,195).edge(215,235).
edge(216,215).edge(216,196).edge(216,236).
edge(218,219).edge(218,198).edge(218,238).
edge(219,218).edge(219,220).edge(219,199).edge(219,239).
edge(220,219).edge(220,200).edge(220,240).
edge(222,223).edge(222,202).
edge(223,222).edge(223,224).edge(223,203).
edge(224,223).edge(224,204).
edge(226,227).edge(226,206).edge(226,246).
edge(227,226).edge(227,228).edge(227,207).
edge(228,227).edge(228,208).
edge(230,231).edge(230,210).edge(230,250).
edge(231,230).edge(231,232).edge(231,211).
edge(232,231).edge(232,233).edge(232,212).
edge(233,232).edge(233,234).
edge(234,233).edge(234,235).edge(234,214).
edge(235,234).edge(235,236).edge(235,215).
edge(236,235).edge(236,216).
edge(238,239).edge(238,218).
edge(239,238).edge(239,240).edge(239,219).edge(239,259).
edge(240,239).edge(240,220).
edge(246,226).edge(246,266).
edge(250,230).edge(250,270).
edge(259,239).edge(259,279).
edge(262,263).edge(262,282).
edge(263,262).edge(263,264).edge(263,283).
edge(264,263).edge(264,284).
edge(266,267).edge(266,246).edge(266,286).
edge(267,266).edge(267,268).edge(267,287).
edge(268,267).edge(268,269).edge(268,288).
edge(269,268).edge(269,270).
edge(270,269).edge(270,271).edge(270,250).edge(270,290).
edge(271,270).edge(271,272).edge(271,291).
edge(272,271).edge(272,292).
edge(274,275).edge(274,294).
edge(275,274).edge(275,276).edge(275,295).
edge(276,275).edge(276,296).
edge(278,279).edge(278,298).
edge(279,278).edge(279,280).edge(279,259).edge(279,299).
edge(280,279).edge(280,300).
edge(282,283).edge(282,262).edge(282,302).
edge(283,282).edge(283,284).edge(283,263).edge(283,303).
edge(284,283).edge(284,264).edge(284,304).
edge(286,287).edge(286,266).edge(286,306).
edge(287,286).edge(287,288).edge(287,267).edge(287,307).
edge(288,287).edge(288,268).edge(288,308).
edge(290,291).edge(290,270).edge(290,310).
edge(291,290).edge(291,292).edge(291,271).edge(291,311).
edge(292,291).edge(292,293).edge(292,272).edge(292,312).
edge(293,292).edge(293,294).
edge(294,293).edge(294,295).edge(294,274).edge(294,314).
edge(295,294).edge(295,296).edge(295,275).edge(295,315).
edge(296,295).edge(296,297).edge(296,276).edge(296,316).
edge(297,296).edge(297,298).
edge(298,297).edge(298,299).edge(298,278).edge(298,318).
edge(299,298).edge(299,300).edge(299,279).edge(299,319).
edge(300,299).edge(300,280).edge(300,320).
edge(301,302).
edge(302,301).edge(302,303).edge(302,282).
edge(303,302).edge(303,304).edge(303,283).edge(303,323).
edge(304,303).edge(304,284).
edge(306,307).edge(306,286).
edge(307,306).edge(307,308).edge(307,287).edge(307,327).
edge(308,307).edge(308,288).
edge(310,311).edge(310,290).
edge(311,310).edge(311,312).edge(311,291).
edge(312,311).edge(312,292).edge(312,332).
edge(314,315).edge(314,294).
edge(315,314).edge(315,316).edge(315,295).
edge(316,315).edge(316,296).
edge(318,319).edge(318,298).
edge(319,318).edge(319,320).edge(319,299).edge(319,339).
edge(320,319).edge(320,300).
edge(323,303).edge(323,343).
edge(327,307).edge(327,347).
edge(332,312).edge(332,352).
edge(339,319).edge(339,359).
edge(341,342).
edge(342,341).edge(342,343).edge(342,362).
edge(343,342).edge(343,344).edge(343,323).edge(343,363).
edge(344,343).edge(344,364).
edge(346,347).edge(346,366).
edge(347,346).edge(347,348).edge(347,327).edge(347,367).
edge(348,347).edge(348,368).
edge(350,351).edge(350,370).
edge(351,350).edge(351,352).edge(351,371).
edge(352,351).edge(352,332).edge(352,372).
edge(354,355).edge(354,374).
edge(355,354).edge(355,356).edge(355,375).
edge(356,355).edge(356,376).
edge(358,359).edge(358,378).
edge(359,358).edge(359,360).edge(359,339).edge(359,379).
edge(360,359).edge(360,380).
edge(362,363).edge(362,342).edge(362,382).
edge(363,362).edge(363,364).edge(363,343).edge(363,383).
edge(364,363).edge(364,344).edge(364,384).
edge(366,367).edge(366,346).edge(366,386).
edge(367,366).edge(367,368).edge(367,347).edge(367,387).
edge(368,367).edge(368,369).edge(368,348).edge(368,388).
edge(369,368).edge(369,370).
edge(370,369).edge(370,371).edge(370,350).edge(370,390).
edge(371,370).edge(371,372).edge(371,351).edge(371,391).
edge(372,371).edge(372,352).edge(372,392).
edge(374,375).edge(374,354).edge(374,394).
edge(375,374).edge(375,376).edge(375,355).edge(375,395).
edge(376,375).edge(376,377).edge(376,356).edge(376,396).
edge(377,376).edge(377,378).
edge(378,377).edge(378,379).edge(378,358).edge(378,398).
edge(379,378).edge(379,380).edge(379,359).edge(379,399).
edge(380,379).edge(380,360).edge(380,400).
edge(382,383).edge(382,362).
edge(383,382).edge(383,384).edge(383,363).
edge(384,383).edge(384,385).edge(384,364).
edge(385,384).edge(385,386).
edge(386,385).edge(386,387).edge(386,366).
edge(387,386).edge(387,388).edge(387,367).
edge(388,387).edge(388,368).
edge(390,391).edge(390,370).
edge(391,390).edge(391,392).edge(391,371).
edge(392,391).edge(392,372).
edge(394,395).edge(394,374).
edge(395,394).edge(395,396).edge(395,375).
edge(396,395).edge(396,376).
edge(398,399).edge(398,378).
edge(399,398).edge(399,400).edge(399,379).
edge(400,399).edge(400,380).