#program base.

vertex(1..400).

edge(1,(2;21)).edge(2,(1;3;22)).edge(3,(2;4;23)).edge(4,(3;5;24)).edge(5,(4;6;25)).edge(6,(5;7;26)).edge(7,(6;8;27)).edge(8,(7;9;28)).edge(9,(8;10;29)).edge(10,(9;11;30)).edge(11,(10;12;31)).edge(12,(11;13;32)).edge(13,(12;14;33)).edge(14,(13;15;34)).edge(15,(14;16;35)).edge(16,(15;17;36)).edge(17,(16;18;37)).edge(18,(17;19;38)).edge(19,(18;20;39)).edge(20,(19;40)).
edge(21,(22;1;41)).edge(22,(21;23;2;42)).edge(23,(22;24;3;43)).edge(24,(23;25;4;44)).edge(25,(24;26;5;45)).edge(26,(25;27;6;46)).edge(27,(26;28;7;47)).edge(28,(27;29;8;48)).edge(29,(28;30;9;49)).edge(30,(29;31;10;50)).edge(31,(30;32;11;51)).edge(32,(31;33;12;52)).edge(33,(32;34;13;53)).edge(34,(33;35;14;54)).edge(35,(34;36;15;55)).edge(36,(35;37;16;56)).edge(37,(36;38;17;57)).edge(38,(37;39;18;58)).edge(39,(38;40;19;59)).edge(40,(39;20;60)).
edge(41,(42;21;61)).edge(42,(41;43;22;62)).edge(43,(42;44;23;63)).edge(44,(43;45;24;64)).edge(45,(44;46;25;65)).edge(46,(45;47;26;66)).edge(47,(46;48;27;67)).edge(48,(47;49;28;68)).edge(49,(48;50;29;69)).edge(50,(49;51;30;70)).edge(51,(50;52;31;71)).edge(52,(51;53;32;72)).edge(53,(52;54;33;73)).edge(54,(53;55;34;74)).edge(55,(54;56;35;75)).edge(56,(55;57;36;76)).edge(57,(56;58;37;77)).edge(58,(57;59;38;78)).edge(59,(58;60;39;79)).edge(60,(59;40;80)).
edge(61,(62;41;81)).edge(62,(61;63;42;82)).edge(63,(62;64;43;83)).edge(64,(63;65;44;84)).edge(65,(64;66;45;85)).edge(66,(65;67;46;86)).edge(67,(66;68;47;87)).edge(68,(67;69;48;88)).edge(69,(68;70;49;89)).edge(70,(69;71;50;90)).edge(71,(70;72;51;91)).edge(72,(71;73;52;92)).edge(73,(72;74;53;93)).edge(74,(73;75;54;94)).edge(75,(74;76;55;95)).edge(76,(75;77;56;96)).edge(77,(76;78;57;97)).edge(78,(77;79;58;98)).edge(79,(78;80;59;99)).edge(80,(79;60;100)).
edge(81,(82;61;101)).edge(82,(81;83;62;102)).edge(83,(82;84;63;103)).edge(84,(83;85;64;104)).edge(85,(84;86;65;105)).edge(86,(85;87;66;106)).edge(87,(86;88;67;107)).edge(88,(87;89;68;108)).edge(89,(88;90;69;109)).edge(90,(89;91;70;110)).edge(91,(90;92;71;111)).edge(92,(91;93;72;112)).edge(93,(92;94;73;113)).edge(94,(93;95;74;114)).edge(95,(94;96;75;115)).edge(96,(95;97;76;116)).edge(97,(96;98;77;117)).edge(98,(97;99;78;118)).edge(99,(98;100;79;119)).edge(100,(99;80;120)).
edge(101,(102;81;121)).edge(102,(101;103;82;122)).edge(103,(102;104;83;123)).edge(104,(103;105;84;124)).edge(105,(104;106;85;125)).edge(106,(105;107;86;126)).edge(107,(106;108;87;127)).edge(108,(107;109;88;128)).edge(109,(108;110;89;129)).edge(110,(109;111;90;130)).edge(111,(110;112;91;131)).edge(112,(111;113;92;132)).edge(113,(112;114;93;133)).edge(114,(113;115;94;134)).edge(115,(114;116;95;135)).edge(116,(115;117;96;136)).edge(117,(116;118;97;137)).edge(118,(117;119;98;138)).edge(119,(118;120;99;139)).edge(120,(119;100;140)).
edge(121,(122;101;141)).edge(122,(121;123;102;142)).edge(123,(122;124;103;143)).edge(124,(123;125;104;144)).edge(125,(124;126;105;145)).edge(126,(125;127;106;146)).edge(127,(126;128;107;147)).edge(128,(127;129;108;148)).edge(129,(128;130;109;149)).edge(130,(129;131;110;150)).edge(131,(130;132;111;151)).edge(132,(131;133;112;152)).edge(133,(132;134;113;153)).edge(134,(133;135;114;154)).edge(135,(134;136;115;155)).edge(136,(135;137;116;156)).edge(137,(136;138;117;157)).edge(138,(137;139;118;158)).edge(139,(138;140;119;159)).edge(140,(139;120;160)).
edge(141,(142;121;161)).edge(142,(141;143;122;162)).edge(143,(142;144;123;163)).edge(144,(143;145;124;164)).edge(145,(144;146;125;165)).edge(146,(145;147;126;166)).edge(147,(146;148;127;167)).edge(148,(147;149;128;168)).edge(149,(148;150;129;169)).edge(150,(149;151;130;170)).edge(151,(150;152;131;171)).edge(152,(151;153;132;172)).edge(153,(152;154;133;173)).edge(154,(153;155;134;174)).edge(155,(154;156;135;175)).edge(156,(155;157;136;176)).edge(157,(156;158;137;177)).edge(158,(157;159;138;178)).edge(159,(158;160;139;179)).edge(160,(159;140;180)).
edge(161,(162;141;181)).edge(162,(161;163;142;182)).edge(163,(162;164;143;183)).edge(164,(163;165;144;184)).edge(165,(164;166;145;185)).edge(166,(165;167;146;186)).edge(167,(166;168;147;187)).edge(168,(167;169;148;188)).edge(169,(168;170;149;189)).edge(170,(169;171;150;190)).edge(171,(170;172;151;191)).edge(172,(171;173;152;192)).edge(173,(172;174;153;193)).edge(174,(173;175;154;194)).edge(175,(174;176;155;195)).edge(176,(175;177;156;196)).edge(177,(176;178;157;197)).edge(178,(177;179;158;198)).edge(179,(178;180;159;199)).edge(180,(179;160;200)).
edge(181,(182;161;201)).edge(182,(181;183;162;202)).edge(183,(182;184;163;203)).edge(184,(183;185;164;204)).edge(185,(184;186;165;205)).edge(186,(185;187;166;206)).edge(187,(186;188;167;207)).edge(188,(187;189;168;208)).edge(189,(188;190;169;209)).edge(190,(189;191;170;210)).edge(191,(190;192;171;211)).edge(192,(191;193;172;212)).edge(193,(192;194;173;213)).edge(194,(193;195;174;214)).edge(195,(194;196;175;215)).edge(196,(195;197;176;216)).edge(197,(196;198;177;217)).edge(198,(197;199;178;218)).edge(199,(198;200;179;219)).edge(200,(199;180;220)).
edge(201,(202;181;221)).edge(202,(201;203;182;222)).edge(203,(202;204;183;223)).edge(204,(203;205;184;224)).edge(205,(204;206;185;225)).edge(206,(205;207;186;226)).edge(207,(206;208;187;227)).edge(208,(207;209;188;228)).edge(209,(208;210;189;229)).edge(210,(209;211;190;230)).edge(211,(210;212;191;231)).edge(212,(211;213;192;232)).edge(213,(212;214;193;233)).edge(214,(213;215;194;234)).edge(215,(214;216;195;235)).edge(216,(215;217;196;236)).edge(217,(216;218;197;237)).edge(218,(217;219;198;238)).edge(219,(218;220;199;239)).edge(220,(219;200;240)).
edge(221,(222;201;241)).edge(222,(221;223;202;242)).edge(223,(222;224;203;243)).edge(224,(223;225;204;244)).edge(225,(224;226;205;245)).edge(226,(225;227;206;246)).edge(227,(226;228;207;247)).edge(228,(227;229;208;248)).edge(229,(228;230;209;249)).edge(230,(229;231;210;250)).edge(231,(230;232;211;251)).edge(232,(231;233;212;252)).edge(233,(232;234;213;253)).edge(234,(233;235;214;254)).edge(235,(234;236;215;255)).edge(236,(235;237;216;256)).edge(237,(236;238;217;257)).edge(238,(237;239;218;258)).edge(239,(238;240;219;259)).edge(240,(239;220;260)).
edge(241,(242;221;261)).edge(242,(241;243;222;262)).edge(243,(242;244;223;263)).edge(244,(243;245;224;264)).edge(245,(244;246;225;265)).edge(246,(245;247;226;266)).edge(247,(246;248;227;267)).edge(248,(247;249;228;268)).edge(249,(248;250;229;269)).edge(250,(249;251;230;270)).edge(251,(250;252;231;271)).edge(252,(251;253;232;272)).edge(253,(252;254;233;273)).edge(254,(253;255;234;274)).edge(255,(254;256;235;275)).edge(256,(255;257;236;276)).edge(257,(256;258;237;277)).edge(258,(257;259;238;278)).edge(259,(258;260;239;279)).edge(260,(259;240;280)).
edge(261,(262;241;281)).edge(262,(261;263;242;282)).edge(263,(262;264;243;283)).edge(264,(263;265;244;284)).edge(265,(264;266;245;285)).edge(266,(265;267;246;286)).edge(267,(266;268;247;287)).edge(268,(267;269;248;288)).edge(269,(268;270;249;289)).edge(270,(269;271;250;290)).edge(271,(270;272;251;291)).edge(272,(271;273;252;292)).edge(273,(272;274;253;293)).edge(274,(273;275;254;294)).edge(275,(274;276;255;295)).edge(276,(275;277;256;296)).edge(277,(276;278;257;297)).edge(278,(277;279;258;298)).edge(279,(278;280;259;299)).edge(280,(279;260;300)).
edge(281,(282;261;301)).edge(282,(281;283;262;302)).edge(283,(282;284;263;303)).edge(284,(283;285;264;304)).edge(285,(284;286;265;305)).edge(286,(285;287;266;306)).edge(287,(286;288;267;307)).edge(288,(287;289;268;308)).edge(289,(288;290;269;309)).edge(290,(289;291;270;310)).edge(291,(290;292;271;311)).edge(292,(291;293;272;312)).edge(293,(292;294;273;313)).edge(294,(293;295;274;314)).edge(295,(294;296;275;315)).edge(296,(295;297;276;316)).edge(297,(296;298;277;317)).edge(298,(297;299;278;318)).edge(299,(298;300;279;319)).edge(300,(299;280;320)).
edge(301,(302;281;321)).edge(302,(301;303;282;322)).edge(303,(302;304;283;323)).edge(304,(303;305;284;324)).edge(305,(304;306;285;325)).edge(306,(305;307;286;326)).edge(307,(306;308;287;327)).edge(308,(307;309;288;328)).edge(309,(308;310;289;329)).edge(310,(309;311;290;330)).edge(311,(310;312;291;331)).edge(312,(311;313;292;332)).edge(313,(312;314;293;333)).edge(314,(313;315;294;334)).edge(315,(314;316;295;335)).edge(316,(315;317;296;336)).edge(317,(316;318;297;337)).edge(318,(317;319;298;338)).edge(319,(318;320;299;339)).edge(320,(319;300;340)).
edge(321,(322;301;341)).edge(322,(321;323;302;342)).edge(323,(322;324;303;343)).edge(324,(323;325;304;344)).edge(325,(324;326;305;345)).edge(326,(325;327;306;346)).edge(327,(326;328;307;347)).edge(328,(327;329;308;348)).edge(329,(328;330;309;349)).edge(330,(329;331;310;350)).edge(331,(330;332;311;351)).edge(332,(331;333;312;352)).edge(333,(332;334;313;353)).edge(334,(333;335;314;354)).edge(335,(334;336;315;355)).edge(336,(335;337;316;356)).edge(337,(336;338;317;357)).edge(338,(337;339;318;358)).edge(339,(338;340;319;359)).edge(340,(339;320;360)).
edge(341,(342;321;361)).edge(342,(341;343;322;362)).edge(343,(342;344;323;363)).edge(344,(343;345;324;364)).edge(345,(344;346;325;365)).edge(346,(345;347;326;366)).edge(347,(346;348;327;367)).edge(348,(347;349;328;368)).edge(349,(348;350;329;369)).edge(350,(349;351;330;370)).edge(351,(350;352;331;371)).edge(352,(351;353;332;372)).edge(353,(352;354;333;373)).edge(354,(353;355;334;374)).edge(355,(354;356;335;375)).edge(356,(355;357;336;376)).edge(357,(356;358;337;377)).edge(358,(357;359;338;378)).edge(359,(358;360;339;379)).edge(360,(359;340;380)).
edge(361,(362;341;381)).edge(362,(361;363;342;382)).edge(363,(362;364;343;383)).edge(364,(363;365;344;384)).edge(365,(364;366;345;385)).edge(366,(365;367;346;386)).edge(367,(366;368;347;387)).edge(368,(367;369;348;388)).edge(369,(368;370;349;389)).edge(370,(369;371;350;390)).edge(371,(370;372;351;391)).edge(372,(371;373;352;392)).edge(373,(372;374;353;393)).edge(374,(373;375;354;394)).edge(375,(374;376;355;395)).edge(376,(375;377;356;396)).edge(377,(376;378;357;397)).edge(378,(377;379;358;398)).edge(379,(378;380;359;399)).edge(380,(379;360;400)).
edge(381,(382;361)).edge(382,(381;383;362)).edge(383,(382;384;363)).edge(384,(383;385;364)).edge(385,(384;386;365)).edge(386,(385;387;366)).edge(387,(386;388;367)).edge(388,(387;389;368)).edge(389,(388;390;369)).edge(390,(389;391;370)).edge(391,(390;392;371)).edge(392,(391;393;372)).edge(393,(392;394;373)).edge(394,(393;395;374)).edge(395,(394;396;375)).edge(396,(395;397;376)).edge(397,(396;398;377)).edge(398,(397;399;378)).edge(399,(398;400;379)).edge(400,(399;380)).
